NAME          EXAMPLE1
ROWS
 N   O0
 L   C0
 L   C1
 L   C2
 L   C3
 L   C4
 L   C5
 L   C6
 L   C7
 L   C8
 E   C9
 E   C10
 E   C11
 E   C12
 E   C13
 E   C14
 E   C15
 E   C16
 E   C17
 E   C18
 E   C19
 E   C20
 E   C21
 E   C22
 E   C23
 E   C24
COLUMNS
    V0        C9        1.0
    V0        C0        